set VV := 0 1 2 3 4 5 6 7 8 9 10 11 12 13 14 15 16 17 18 19 20 21 22 ;
set VS := 0 1 2 3 4 5 6 7 8 9 10 11 12 13 14 15 16 17 18 19 20 21 22 23 24 25 26 27 28 29 30 31 32 33 34 35 36 37 38 39 40 41 42 43 44 45 46 47 48 49 ;
param cv := 
0 12
1 14
2 21
3 20
4 20
5 15
6 23
7 17
8 24
9 18
10 10
11 20
12 23
13 11
14 11
15 17
16 12
17 20
18 15
19 12
20 15
21 11
22 22
;
param cs := 
0 33
1 26
2 35
3 34
4 23
5 25
6 23
7 26
8 40
9 24
10 39
11 32
12 23
13 34
14 22
15 25
16 33
17 25
18 24
19 25
20 26
21 21
22 23
23 20
24 21
25 27
26 24
27 35
28 22
29 37
30 37
31 24
32 28
33 24
34 40
35 34
36 30
37 20
38 30
39 36
40 20
41 33
42 24
43 30
44 36
45 25
46 36
47 29
48 38
49 20
;
param bv:	 0 1 2 3 4 5 6 7 8 9 10 11 12 13 14 15 16 17 18 19 20 21 22 := 
		0 0 0 0 0 11 0 13 0 0 0 0 0 0 0 0 0 0 0 0 0 0 18 0 
		1 0 0 0 0 0 0 0 0 0 0 22 0 0 0 0 0 0 18 0 0 0 0 0 
		2 0 0 0 0 0 0 0 0 0 0 0 0 0 0 0 0 0 0 18 0 0 0 0 
		3 0 0 0 0 0 0 0 0 0 0 0 0 0 0 0 0 0 0 0 0 0 0 23 
		4 0 0 0 0 0 0 0 0 0 0 0 0 0 0 0 0 0 0 0 0 0 0 0 
		5 0 0 0 0 0 0 0 0 0 0 0 0 0 0 25 0 18 0 0 0 0 0 0 
		6 0 0 0 0 0 0 0 0 0 20 19 18 22 16 0 0 0 18 18 13 15 0 11 
		7 0 0 0 0 0 0 0 0 0 0 0 0 0 14 0 0 0 0 0 0 0 14 0 
		8 0 0 0 0 0 0 0 0 0 25 0 0 0 0 0 0 0 0 0 0 0 0 0 
		9 0 0 0 0 0 0 0 0 0 0 0 0 16 0 0 0 0 0 0 20 0 0 0 
		10 0 0 0 0 0 0 0 0 0 0 0 0 0 0 0 0 0 0 0 0 0 0 0 
		11 0 0 0 0 0 0 0 0 0 0 0 0 15 0 0 0 0 0 0 0 0 0 0 
		12 0 0 0 0 0 0 0 0 0 0 0 0 0 0 0 0 0 0 0 0 0 0 0 
		13 0 0 0 0 0 0 0 0 0 0 0 0 0 0 0 15 0 19 0 0 0 0 0 
		14 0 0 0 0 0 0 0 0 0 0 0 0 0 0 0 0 0 0 25 0 0 16 0 
		15 0 0 0 0 0 0 0 0 0 0 0 0 0 0 0 0 0 0 22 0 0 0 0 
		16 0 0 0 0 0 0 0 0 0 0 0 0 0 0 0 0 0 0 0 0 0 0 0 
		17 0 0 0 0 0 0 0 0 0 0 0 0 0 0 0 0 0 0 0 0 0 0 0 
		18 0 0 0 0 0 0 0 0 0 0 0 0 0 0 0 0 0 0 0 13 0 13 0 
		19 0 0 0 0 0 0 0 0 0 0 0 0 0 0 0 0 0 0 0 0 11 0 0 
		20 0 0 0 0 0 0 0 0 0 0 0 0 0 0 0 0 0 0 0 0 0 0 0 
		21 0 0 0 0 0 0 0 0 0 0 0 0 0 0 0 0 0 0 0 0 0 0 0 
		22 0 0 0 0 0 0 0 0 0 0 0 0 0 0 0 0 0 0 0 0 0 0 0 
;
param bs:	 0 1 2 3 4 5 6 7 8 9 10 11 12 13 14 15 16 17 18 19 20 21 22 23 24 25 26 27 28 29 30 31 32 33 34 35 36 37 38 39 40 41 42 43 44 45 46 47 48 49 := 
		0 0 0 0 0 23 0 0 0 0 0 0 0 0 0 0 0 0 0 0 22 0 0 0 0 0 25 0 0 0 0 0 0 0 30 0 0 28 0 0 26 0 0 0 0 0 0 0 0 0 0 
		1 0 0 0 0 36 33 0 0 0 0 0 0 0 0 39 0 0 0 0 23 0 0 0 38 0 0 0 0 0 0 24 0 30 0 0 0 0 0 34 0 32 0 0 28 0 0 38 32 0 0 
		2 0 0 0 0 0 0 0 31 0 0 0 0 0 0 24 0 0 0 0 0 0 0 0 0 0 0 0 0 0 0 0 0 0 0 0 0 0 0 20 0 0 0 0 0 0 0 0 0 0 0 
		3 0 0 0 0 0 0 0 0 0 0 0 0 0 35 0 0 0 0 0 0 0 0 0 0 0 0 0 0 0 0 0 0 0 0 0 0 0 0 0 0 0 0 0 0 30 0 0 0 0 0 
		4 23 36 0 0 0 0 36 0 0 0 0 0 0 30 0 26 0 0 0 0 0 0 21 0 0 0 0 0 0 28 0 0 0 0 0 23 0 20 27 0 24 0 33 0 0 0 0 0 0 0 
		5 0 33 0 0 0 0 0 0 0 27 0 0 0 0 0 0 0 0 0 0 0 0 0 0 0 0 0 27 0 0 0 0 0 0 23 0 0 0 0 22 0 0 0 0 0 0 0 0 0 0 
		6 0 0 0 0 36 0 0 0 0 0 0 0 0 0 0 0 0 0 0 38 0 0 36 0 0 0 0 0 0 0 0 0 20 0 0 0 0 0 36 0 0 0 0 0 0 0 0 0 29 0 
		7 0 0 31 0 0 0 0 0 0 0 0 0 0 34 0 0 0 0 0 0 0 0 0 0 0 0 0 0 0 0 0 0 0 0 0 0 0 0 0 0 0 0 0 0 0 0 0 0 0 0 
		8 0 0 0 0 0 0 0 0 0 24 0 0 36 0 0 0 0 0 31 0 0 0 0 0 0 0 0 0 0 0 0 0 0 0 0 0 0 0 0 0 0 0 0 0 0 0 0 0 0 0 
		9 0 0 0 0 0 27 0 0 24 0 28 0 0 0 0 0 0 0 0 0 0 0 0 0 0 0 0 0 0 0 0 0 0 0 0 0 0 0 0 0 0 0 0 29 0 0 0 0 0 0 
		10 0 0 0 0 0 0 0 0 0 28 0 0 0 22 0 0 0 0 0 0 0 0 0 0 0 0 0 0 0 32 0 0 0 0 0 0 0 0 0 0 31 0 0 21 0 0 0 0 0 0 
		11 0 0 0 0 0 0 0 0 0 0 0 0 0 0 0 0 0 0 0 0 0 35 0 0 0 0 0 0 0 0 0 0 0 0 0 0 0 0 0 0 31 0 0 0 0 38 38 0 0 0 
		12 0 0 0 0 0 0 0 0 36 0 0 0 0 0 0 0 0 0 0 0 0 0 0 0 0 0 0 0 0 0 0 0 0 0 0 0 0 0 0 0 0 0 0 20 0 0 0 0 0 25 
		13 0 0 0 35 30 0 0 34 0 0 22 0 0 0 0 0 0 0 0 28 0 0 0 27 0 0 0 0 0 0 0 0 0 0 0 0 0 0 0 0 30 0 0 0 0 0 0 0 21 26 
		14 0 39 24 0 0 0 0 0 0 0 0 0 0 0 0 0 0 0 0 0 0 0 0 34 0 0 0 0 0 0 0 0 0 0 0 0 0 23 35 0 0 0 0 0 0 0 0 0 0 0 
		15 0 0 0 0 26 0 0 0 0 0 0 0 0 0 0 0 35 0 0 37 0 0 24 0 0 0 0 0 0 0 0 0 0 0 0 0 0 0 0 0 0 21 0 0 0 0 0 0 40 0 
		16 0 0 0 0 0 0 0 0 0 0 0 0 0 0 0 35 0 0 28 0 0 0 0 0 0 0 0 0 0 0 0 0 0 0 0 0 0 0 0 0 0 0 35 0 0 0 0 22 0 0 
		17 0 0 0 0 0 0 0 0 0 0 0 0 0 0 0 0 0 0 0 0 0 0 0 0 0 0 0 0 0 0 0 0 39 0 0 0 0 0 0 0 0 0 0 0 0 0 0 0 0 0 
		18 0 0 0 0 0 0 0 0 31 0 0 0 0 0 0 0 28 0 0 0 0 35 0 0 0 22 0 0 0 0 0 0 0 23 20 22 0 0 0 0 0 0 0 0 0 0 0 0 0 0 
		19 22 23 0 0 0 0 38 0 0 0 0 0 0 28 0 37 0 0 0 0 24 31 0 37 0 0 0 0 26 0 0 0 0 0 0 0 0 36 0 31 0 0 0 0 0 0 30 0 0 0 
		20 0 0 0 0 0 0 0 0 0 0 0 0 0 0 0 0 0 0 0 24 0 0 0 0 0 36 0 30 0 0 0 0 0 0 28 0 0 0 0 0 0 0 40 0 0 0 37 36 0 28 
		21 0 0 0 0 0 0 0 0 0 0 0 35 0 0 0 0 0 0 35 31 0 0 0 0 0 0 0 0 0 0 0 0 0 0 0 0 24 0 0 0 0 0 21 0 0 0 26 0 0 0 
		22 0 0 0 0 21 0 36 0 0 0 0 0 0 0 0 24 0 0 0 0 0 0 0 0 0 0 0 0 26 0 0 26 0 0 30 0 21 0 0 35 0 0 28 0 0 0 0 0 0 0 
		23 0 38 0 0 0 0 0 0 0 0 0 0 0 27 34 0 0 0 0 37 0 0 0 0 0 0 0 0 0 0 0 0 0 0 0 0 0 0 0 0 0 0 0 0 0 0 0 0 0 0 
		24 0 0 0 0 0 0 0 0 0 0 0 0 0 0 0 0 0 0 0 0 0 0 0 0 0 0 0 0 0 0 0 0 0 0 0 0 0 0 0 0 0 22 0 0 0 0 0 0 0 0 
		25 25 0 0 0 0 0 0 0 0 0 0 0 0 0 0 0 0 0 22 0 36 0 0 0 0 0 0 0 0 0 0 0 0 0 0 0 0 0 0 0 0 25 35 0 0 0 0 20 0 0 
		26 0 0 0 0 0 0 0 0 0 0 0 0 0 0 0 0 0 0 0 0 0 0 0 0 0 0 0 0 0 0 0 0 0 0 0 0 0 25 0 0 0 0 0 0 0 0 0 0 21 0 
		27 0 0 0 0 0 27 0 0 0 0 0 0 0 0 0 0 0 0 0 0 30 0 0 0 0 0 0 0 0 0 27 0 0 0 0 0 0 36 24 0 0 0 0 0 0 22 35 0 0 0 
		28 0 0 0 0 0 0 0 0 0 0 0 0 0 0 0 0 0 0 0 26 0 0 26 0 0 0 0 0 0 0 0 0 0 0 0 25 0 0 0 0 0 0 0 0 0 0 27 0 29 0 
		29 0 0 0 0 28 0 0 0 0 0 32 0 0 0 0 0 0 0 0 0 0 0 0 0 0 0 0 0 0 0 0 0 0 0 0 0 0 0 0 0 0 0 0 0 0 0 0 0 31 36 
		30 0 24 0 0 0 0 0 0 0 0 0 0 0 0 0 0 0 0 0 0 0 0 0 0 0 0 0 27 0 0 0 0 0 36 0 0 0 0 0 0 0 0 0 0 0 0 0 0 0 0 
		31 0 0 0 0 0 0 0 0 0 0 0 0 0 0 0 0 0 0 0 0 0 0 26 0 0 0 0 0 0 0 0 0 0 0 0 0 35 0 0 24 0 0 22 0 0 37 0 0 0 0 
		32 0 30 0 0 0 0 20 0 0 0 0 0 0 0 0 0 0 39 0 0 0 0 0 0 0 0 0 0 0 0 0 0 0 0 0 0 0 0 31 0 0 0 0 0 0 22 0 0 0 0 
		33 30 0 0 0 0 0 0 0 0 0 0 0 0 0 0 0 0 0 23 0 0 0 0 0 0 0 0 0 0 0 36 0 0 0 0 0 0 0 0 0 0 0 0 0 0 29 25 0 0 0 
		34 0 0 0 0 0 23 0 0 0 0 0 0 0 0 0 0 0 0 20 0 28 0 30 0 0 0 0 0 0 0 0 0 0 0 0 0 24 0 0 22 0 0 0 0 0 0 0 0 23 0 
		35 0 0 0 0 23 0 0 0 0 0 0 0 0 0 0 0 0 0 22 0 0 0 0 0 0 0 0 0 25 0 0 0 0 0 0 0 0 0 0 0 0 0 0 0 0 0 0 0 0 28 
		36 28 0 0 0 0 0 0 0 0 0 0 0 0 0 0 0 0 0 0 0 0 24 21 0 0 0 0 0 0 0 0 35 0 0 24 0 0 0 0 0 0 0 0 0 0 0 0 0 0 0 
		37 0 0 0 0 20 0 0 0 0 0 0 0 0 0 23 0 0 0 0 36 0 0 0 0 0 0 25 36 0 0 0 0 0 0 0 0 0 0 0 0 0 0 0 0 25 0 0 0 0 0 
		38 0 34 20 0 27 0 36 0 0 0 0 0 0 0 35 0 0 0 0 0 0 0 0 0 0 0 0 24 0 0 0 0 31 0 0 0 0 0 0 21 40 0 0 0 0 0 0 0 0 0 
		39 26 0 0 0 0 22 0 0 0 0 0 0 0 0 0 0 0 0 0 31 0 0 35 0 0 0 0 0 0 0 0 24 0 0 22 0 0 0 21 0 0 0 37 0 0 0 0 0 0 0 
		40 0 32 0 0 24 0 0 0 0 0 31 31 0 30 0 0 0 0 0 0 0 0 0 0 0 0 0 0 0 0 0 0 0 0 0 0 0 0 40 0 0 24 0 0 0 0 0 0 0 0 
		41 0 0 0 0 0 0 0 0 0 0 0 0 0 0 0 21 0 0 0 0 0 0 0 0 22 25 0 0 0 0 0 0 0 0 0 0 0 0 0 0 24 0 0 0 0 0 0 23 0 0 
		42 0 0 0 0 33 0 0 0 0 0 0 0 0 0 0 0 35 0 0 0 40 21 28 0 0 35 0 0 0 0 0 22 0 0 0 0 0 0 0 37 0 0 0 0 0 25 0 0 0 0 
		43 0 28 0 0 0 0 0 0 0 29 21 0 20 0 0 0 0 0 0 0 0 0 0 0 0 0 0 0 0 0 0 0 0 0 0 0 0 0 0 0 0 0 0 0 0 0 26 0 0 0 
		44 0 0 0 30 0 0 0 0 0 0 0 0 0 0 0 0 0 0 0 0 0 0 0 0 0 0 0 0 0 0 0 0 0 0 0 0 0 25 0 0 0 0 0 0 0 0 0 0 0 0 
		45 0 0 0 0 0 0 0 0 0 0 0 38 0 0 0 0 0 0 0 0 0 0 0 0 0 0 0 22 0 0 0 37 22 29 0 0 0 0 0 0 0 0 25 0 0 0 0 0 0 0 
		46 0 38 0 0 0 0 0 0 0 0 0 38 0 0 0 0 0 0 0 30 37 26 0 0 0 0 0 35 27 0 0 0 0 25 0 0 0 0 0 0 0 0 0 26 0 0 0 0 0 0 
		47 0 32 0 0 0 0 0 0 0 0 0 0 0 0 0 0 22 0 0 0 36 0 0 0 0 20 0 0 0 0 0 0 0 0 0 0 0 0 0 0 0 23 0 0 0 0 0 0 0 0 
		48 0 0 0 0 0 0 29 0 0 0 0 0 0 21 0 40 0 0 0 0 0 0 0 0 0 0 21 0 29 31 0 0 0 0 23 0 0 0 0 0 0 0 0 0 0 0 0 0 0 0 
		49 0 0 0 0 0 0 0 0 0 0 0 0 25 26 0 0 0 0 0 0 28 0 0 0 0 0 0 0 0 36 0 0 0 0 0 28 0 0 0 0 0 0 0 0 0 0 0 0 0 0 
;
